sifdecoder -A pc64.lnx.gfo -st   A0NSDSIL

 Problem name: A0NSDSIL

 Double precision version will be formed

 The objective function uses 2 linear groups
 
 There are 20004 linear equality constraints
 
 There are 15004 free variables
 There are 10000 variables bounded only from below 
 There are 35008 fixed variables
 
 
 File successfully decoded
 CUTEST: tools (double precision version) compiled successfully
 CUTEst: ipopt (double precision version) compiled successfully

******************************************************************************
This program contains Ipopt, a library for large-scale nonlinear optimization.
 Ipopt is released as open source code under the Eclipse Public License (EPL).
         For more information visit http://projects.coin-or.org/Ipopt
******************************************************************************

This is Ipopt version trunk, running with linear solver ma57.

Number of nonzeros in equality constraint Jacobian...:    79997
Number of nonzeros in inequality constraint Jacobian.:        0
Number of nonzeros in Lagrangian Hessian.............:    30004

Total number of variables............................:    25004
                     variables with only lower bounds:    10000
                variables with lower and upper bounds:        0
                     variables with only upper bounds:        0
Total number of equality constraints.................:    20004
Total number of inequality constraints...............:        0
        inequality constraints with only lower bounds:        0
   inequality constraints with lower and upper bounds:        0
        inequality constraints with only upper bounds:        0

iter    objective    inf_pr   inf_du lg(mu)  ||d||  lg(rg) alpha_du alpha_pr  ls
   0  4.9999900e-01 6.35e+02 6.23e-01  -1.0 0.00e+00    -  0.00e+00 0.00e+00   0
   1  7.7540055e-01 6.34e+02 1.05e+00  -1.0 2.24e+02    -  1.02e-03 1.98e-03f  1
   2  1.1440796e+00 6.33e+02 1.05e+00  -1.0 1.50e+02    -  1.73e-03 1.70e-03f  1
   3  1.6569436e+00 6.31e+02 1.05e+00  -1.0 1.07e+02    -  1.87e-03 1.95e-03f  1
   4  2.3030774e+00 6.30e+02 1.05e+00  -1.0 1.42e+02    -  1.94e-03 2.18e-03f  1
   5  3.0871505e+00 6.29e+02 1.05e+00  -1.0 1.12e+02    -  2.19e-03 2.43e-03f  1
   6  4.1964514e+00 6.27e+02 1.04e+00  -1.0 1.21e+02    -  2.80e-03 3.21e-03f  1
   7  6.1335803e+00 6.23e+02 3.15e+00  -1.0 2.38e+02    -  3.11e-03 5.36e-03f  1
   8  8.6362013e+00 6.20e+02 3.15e+00  -1.0 1.30e+01   0.0 5.21e-03 5.54e-03f  1
   9  1.4258895e+01 6.12e+02 3.22e+00  -1.0 1.91e+01  -0.5 7.14e-03 1.25e-02f  1
iter    objective    inf_pr   inf_du lg(mu)  ||d||  lg(rg) alpha_du alpha_pr  ls
  10  2.3474551e+01 6.03e+02 3.34e+00  -1.0 1.23e+01  -0.1 1.20e-02 1.47e-02f  1
  11  5.3505044e+01 5.86e+02 5.67e+00  -1.0 1.11e+01   0.4 1.30e-02 2.84e-02f  1
  12  1.3286999e+02 5.49e+02 7.02e+00  -1.0 1.15e+01  -0.1 2.66e-02 6.29e-02f  1
  13  4.0999642e+02 4.87e+02 1.59e+01  -1.0 9.33e+00   0.3 3.52e-02 1.14e-01f  1
  14  4.8509064e+02 4.59e+02 1.30e+01  -1.0 1.19e+01  -0.2 1.27e-01 5.70e-02h  1
  15  2.0048259e+03 2.72e+02 2.86e+01  -1.0 7.49e+00   0.3 1.52e-01 4.07e-01h  1
  16  1.9227688e+03 2.65e+02 3.22e+01  -1.0 1.27e+01  -0.2 5.86e-01 2.68e-02f  1
  17  4.4142107e+03 7.79e+00 7.21e+00  -1.0 4.32e+00   0.2 8.90e-01 9.71e-01h  1
  18  3.8505466e+03 7.44e+00 1.55e+01  -1.0 2.36e+01  -0.3 3.11e-01 4.44e-02f  1
  19  3.6504210e+03 6.34e+00 3.94e+01  -1.0 1.90e+00   0.2 1.00e+00 1.49e-01f  1
iter    objective    inf_pr   inf_du lg(mu)  ||d||  lg(rg) alpha_du alpha_pr  ls
  20  3.2620110e+03 6.08e+00 3.80e+01  -1.0 3.66e+01  -0.3 1.70e-01 4.04e-02f  1
  21  3.1224237e+03 5.25e+00 3.17e+01  -1.0 2.03e+00   0.1 1.00e+00 1.37e-01f  1
  22  2.9198444e+03 1.88e+00 1.05e+01  -1.0 6.35e-01   0.5 1.00e+00 6.43e-01f  1
  23  2.7618920e+03 1.50e+00 1.16e+01  -1.0 2.31e+00   0.1 1.00e+00 2.01e-01f  1
  24  2.6273711e+03 6.42e-01 4.37e+00  -1.0 6.70e-01   0.5 1.00e+00 5.72e-01f  1
  25  2.5131095e+03 5.32e-01 5.87e+00  -1.0 2.63e+00   0.0 1.00e+00 1.71e-01f  1
  26  2.3929619e+03 2.22e-01 3.10e+00  -1.0 7.26e-01   0.4 1.00e+00 5.82e-01f  1
  27  2.2864596e+03 1.85e-01 5.86e+00  -1.0 2.74e+00  -0.0 1.00e+00 1.67e-01f  1
  28  2.1911850e+03 8.52e-02 3.58e+00  -1.0 7.26e-01   0.4 1.00e+00 5.40e-01f  1
  29  2.0789147e+03 7.00e-02 4.07e+00  -1.0 3.56e+00  -0.1 1.00e+00 1.78e-01f  1
iter    objective    inf_pr   inf_du lg(mu)  ||d||  lg(rg) alpha_du alpha_pr  ls
  30  1.9993286e+03 3.79e-02 3.69e+00  -1.0 8.68e-01   0.3 1.00e+00 4.59e-01f  1
  31  1.8879851e+03 3.16e-02 5.03e+00  -1.0 4.58e+00  -0.1 1.00e+00 1.67e-01f  1
  32  1.7973954e+03 1.58e-02 3.13e+00  -1.0 9.17e-01   0.3 1.00e+00 4.99e-01f  1
  33  1.6784689e+03 1.30e-02 6.33e+00  -1.0 6.14e+00  -0.2 1.00e+00 1.77e-01f  1
  34  1.6361662e+03 9.63e-03 5.70e+00  -1.0 9.30e-01   0.2 1.00e+00 2.60e-01f  1
  35  1.4826000e+03 7.68e-03 5.65e+00  -1.0 7.60e+00  -0.2 1.00e+00 2.02e-01f  1
  36  1.4311456e+03 5.64e-03 4.13e+00  -1.0 1.15e+00   0.2 1.00e+00 2.65e-01f  1
  37  1.3218650e+03 4.96e-03 4.02e+00  -1.0 1.01e+01  -0.3 5.82e-01 1.20e-01f  1
  38  1.2331171e+03 2.88e-03 4.31e+00  -1.0 1.44e+00   0.1 1.00e+00 4.20e-01f  1
  39  1.1582225e+03 2.69e-03 4.01e+00  -1.0 2.13e+01  -0.3 1.52e-01 6.49e-02f  1
iter    objective    inf_pr   inf_du lg(mu)  ||d||  lg(rg) alpha_du alpha_pr  ls
  40  1.1002323e+03 2.00e-03 5.90e+00  -1.0 1.81e+00   0.1 1.00e+00 2.57e-01f  1
  41  1.0496271e+03 6.61e-04 3.11e+00  -1.0 4.55e-01   0.5 1.00e+00 6.69e-01f  1
  42  9.8680047e+02 4.51e-04 3.92e+00  -1.0 2.03e+00   0.0 1.00e+00 3.18e-01f  1
  43  9.5370598e+02 2.18e-04 3.56e+00  -1.0 5.99e-01   0.5 1.00e+00 5.16e-01f  1
  44  9.1951930e+02 1.75e-04 5.11e+00  -1.0 2.37e+00  -0.0 1.00e+00 1.99e-01f  1
  45  8.9448915e+02 8.82e-05 3.14e+00  -1.0 6.45e-01   0.4 1.00e+00 4.96e-01f  1
  46  8.6140501e+02 6.64e-05 4.86e+00  -1.0 2.14e+00  -0.1 1.00e+00 2.47e-01f  1
  47  8.3509390e+02 2.48e-05 2.31e+00  -1.0 6.44e-01   0.4 1.00e+00 6.26e-01f  1
  48  8.0313383e+02 1.92e-05 2.41e+00  -1.0 3.23e+00  -0.1 1.00e+00 2.28e-01f  1
  49  7.8505243e+02 9.87e-06 4.12e+00  -1.0 7.79e-01   0.3 1.00e+00 4.85e-01f  1
iter    objective    inf_pr   inf_du lg(mu)  ||d||  lg(rg) alpha_du alpha_pr  ls
  50  7.3955449e+02 6.09e-06 2.82e+00  -1.0 2.71e+00  -0.2 1.00e+00 3.84e-01f  1
  51  7.2466836e+02 3.34e-06 4.53e+00  -1.0 8.09e-01   0.3 1.00e+00 4.51e-01f  1
  52  7.0162133e+02 2.71e-06 4.72e+00  -1.0 5.53e+00  -0.2 1.00e+00 1.89e-01f  1
  53  6.9339232e+02 1.97e-06 5.72e+00  -1.0 9.95e-01   0.2 1.00e+00 2.72e-01f  1
  54  6.7133467e+02 1.50e-06 4.09e+00  -1.0 3.58e+00  -0.3 1.00e+00 2.40e-01f  1
  55  6.5237332e+02 4.50e-07 1.27e+00  -1.0 9.45e-01   0.2 1.00e+00 7.00e-01f  1
  56  6.3633440e+02 3.84e-07 5.07e+00  -1.0 6.59e+00  -0.3 1.00e+00 1.48e-01f  1
  57  6.2176902e+02 9.38e-08 1.33e+00  -1.0 8.75e-01   0.1 1.00e+00 7.55e-01f  1
  58  6.0465856e+02 6.64e-08 3.62e+00  -1.0 4.99e+00  -0.4 7.71e-01 2.93e-01f  1
  59  5.9334989e+02 1.99e-08 1.76e+00  -1.0 1.16e+00   0.1 1.00e+00 7.00e-01f  1
iter    objective    inf_pr   inf_du lg(mu)  ||d||  lg(rg) alpha_du alpha_pr  ls
  60  5.8702044e+02 1.84e-08 2.62e+00  -1.0 6.81e+00  -0.4 6.36e-01 7.60e-02f  1
  61  5.7242340e+02 1.44e-09 7.86e-01  -1.0 7.95e-01  -0.0 1.00e+00 9.22e-01f  1
  62  5.3967067e+02 1.34e-09 1.03e+00  -1.7 1.69e+01  -0.5 2.55e-01 6.31e-02f  1
  63  3.6279684e+02 7.08e-10 1.35e+00  -1.7 1.29e+00  -0.1 1.00e+00 4.72e-01f  1
  64  3.4624106e+02 6.84e-10 1.54e+00  -1.7 2.83e+01  -0.5 1.95e-01 3.82e-02f  1
  65  2.2781991e+02 3.16e-10 1.34e+00  -1.7 1.85e+00  -0.1 1.00e+00 5.39e-01f  1
  66  2.2179076e+02 3.07e-10 1.33e+00  -1.7 4.26e+01  -0.6 6.81e-02 1.92e-02f  1
  67  1.9954219e+02 2.46e-10 5.84e+00  -1.7 1.36e+00  -0.2 1.00e+00 2.05e-01f  1
  68  1.5094803e+02 8.46e-11 2.38e+00  -1.7 4.08e-01   0.3 1.00e+00 6.61e-01f  1
  69  1.4152114e+02 6.41e-11 4.78e+00  -1.7 1.84e+00  -0.2 1.00e+00 2.23e-01f  1
iter    objective    inf_pr   inf_du lg(mu)  ||d||  lg(rg) alpha_du alpha_pr  ls
  70  1.2586841e+02 2.13e-11 1.79e+00  -1.7 5.54e-01   0.2 1.00e+00 6.80e-01f  1
  71  1.2298985e+02 1.82e-11 2.01e+00  -1.7 2.11e+00  -0.3 1.00e+00 1.50e-01f  1
  72  1.1675494e+02 3.08e-12 5.19e-01  -1.7 3.45e-01   0.2 1.00e+00 7.98e-01f  1
  73  1.1501906e+02 3.98e-13 7.05e-01  -1.7 1.21e+00  -0.3 1.00e+00 2.87e-01f  1
  74  1.1324395e+02 3.25e-12 4.85e-01  -1.7 3.83e-01   0.1 1.00e+00 7.49e-01f  1
  75  1.1196154e+02 8.16e-13 8.40e-01  -1.7 1.61e+00  -0.4 1.00e+00 3.25e-01f  1
  76  1.1075357e+02 6.08e-13 5.99e-01  -1.7 5.14e-01   0.1 1.00e+00 1.00e+00f  1
  77  1.0954307e+02 1.28e-12 6.82e-01  -1.7 2.31e+00  -0.4 1.00e+00 2.75e-01f  1
  78  1.0921264e+02 3.85e-12 1.88e-01  -1.7 1.81e-01   0.0 1.00e+00 1.00e+00f  1
  79  7.5004297e+01 2.18e-12 5.22e-01  -2.5 7.81e-01  -0.5 8.31e-01 3.97e-01f  1
iter    objective    inf_pr   inf_du lg(mu)  ||d||  lg(rg) alpha_du alpha_pr  ls
  80  2.3461415e+01 1.98e-12 2.42e-01  -2.5 2.63e-01  -0.0 1.00e+00 1.00e+00f  1
  81  2.2504160e+01 1.51e-12 6.88e-01  -2.5 1.75e+00  -0.5 1.00e+00 2.65e-01f  1
  82  2.1675861e+01 1.55e-12 3.83e-01  -2.5 5.03e-01  -0.1 1.00e+00 6.85e-01f  1
  83  2.0749931e+01 2.44e-12 9.21e-01  -2.5 4.24e+00  -0.6 1.00e+00 1.11e-01f  1
  84  1.9411099e+01 2.16e-12 5.32e-01  -2.5 7.31e-01  -0.1 1.00e+00 1.00e+00f  1
  85  1.8687974e+01 3.72e-12 1.16e+00  -2.5 5.80e+00  -0.6 1.00e+00 7.45e-02f  1
  86  1.8421311e+01 7.96e-13 7.93e-01  -2.5 3.78e-01  -0.2 1.00e+00 4.55e-01f  1
  87  1.8211013e+01 6.63e-13 1.73e+00  -2.5 1.19e+00  -0.7 5.88e-01 1.49e-01f  1
  88  1.7876423e+01 5.54e-13 2.25e-01  -2.5 3.91e-01  -0.2 1.00e+00 1.00e+00f  1
  89  1.7340656e+01 1.01e-12 2.34e-01  -2.5 1.29e+00  -0.7 4.71e-01 4.38e-01f  1
iter    objective    inf_pr   inf_du lg(mu)  ||d||  lg(rg) alpha_du alpha_pr  ls
  90  1.7129632e+01 1.20e-12 2.70e-01  -2.5 5.27e-01  -0.3 1.00e+00 1.00e+00f  1
  91  1.6829716e+01 1.59e-12 5.38e-01  -2.5 3.84e+00  -0.8 3.34e-01 1.26e-01f  1
  92  1.6794897e+01 1.67e-12 1.13e-01  -2.5 2.47e-01  -0.3 1.00e+00 1.00e+00f  1
  93  1.6583687e+01 4.39e-13 2.58e+00  -2.5 9.07e+01    -  2.39e-01 1.78e-02f  1
  94  1.5123734e+01 1.20e-12 3.24e+00  -2.5 6.50e+01    -  1.00e+00 1.78e-01f  1
  95  1.4694914e+01 6.45e-13 2.67e+00  -2.5 2.60e+01    -  1.00e+00 1.58e-01f  1
  96  1.4372428e+01 8.61e-13 1.54e+00  -2.5 8.18e+00    -  1.00e+00 4.10e-01f  1
  97  1.4141262e+01 1.44e-12 2.83e-08  -2.5 2.11e+00    -  1.00e+00 1.00e+00f  1
  98  7.5203790e-01 1.49e-12 1.50e-09  -3.8 1.84e-01    -  1.00e+00 1.00e+00f  1
  99  8.9673070e-03 2.55e-12 1.85e-11  -5.7 1.01e-02    -  1.00e+00 1.00e+00f  1
iter    objective    inf_pr   inf_du lg(mu)  ||d||  lg(rg) alpha_du alpha_pr  ls
 100 -2.4669975e-04 2.53e-13 2.84e-14  -8.6 1.30e-04    -  1.00e+00 1.00e+00f  1

Number of Iterations....: 100

                                   (scaled)                 (unscaled)
Objective...............:  -2.4669974521623520e-04   -2.4669974521623520e-04
Dual infeasibility......:   2.8421709430404007e-14    2.8421709430404007e-14
Constraint violation....:   2.5268676040468563e-13    2.5268676040468563e-13
Complementarity.........:   2.5301923040139177e-09    2.5301923040139177e-09
Overall NLP error.......:   2.5301923040139177e-09    2.5301923040139177e-09


Number of objective function evaluations             = 101
Number of objective gradient evaluations             = 101
Number of equality constraint evaluations            = 101
Number of inequality constraint evaluations          = 0
Number of equality constraint Jacobian evaluations   = 101
Number of inequality constraint Jacobian evaluations = 0
Number of Lagrangian Hessian evaluations             = 100
Total CPU secs in IPOPT (w/o function evaluations)   =     22.858
Total CPU secs in NLP function evaluations           =      6.100

EXIT: Optimal Solution Found.

************************ CUTEst statistics ************************


 Package used            :  IPOPT
 Problem                 :  A0NSDSIL  
 # variables             =           60012
 # constraints           =           20004
 # objective functions   =        0.2030000E+03
 # objective gradients   =        0.1020000E+03
 # objective Hessians    =        0.1010000E+03
 # Hessian-vector prdct  =        0.0000000E+00
 # constraints functions =        0.2040000E+03
 # constraints gradients =        0.1030000E+03
 # constraints Hessians  =        0.1010000E+03
 Exit code               =               0
 Final f                 =       -2.4669974521623520D-04
 Bounds feasibility      =        9.7503674888489181D-09
 Set up time             =            0.74 seconds
 Solve time              =           60.85 seconds


******************************************************************

